r = [
0,39,10,67,24,66,70,26,42,47,59,0
];
p = [
0,22,21,17,12,16,7,21,14,4,9,0
];
e = [
0,5,1,17,20,8,14,13,6,18,7,0
];
d = [
0,112,85,134,99,141,134,92,115,116,123,143
];
d_bar = [
0,114,87,136,100,143,135,94,116,117,124,143
];
w = [
0,2.5,0.5,8.5,20,4,14,6.5,6,18,7,0
];
